# Objective value = 95603
x66 0
x67 0
x68 1
x69 0
x70 1
x71 1
x72 1
x73 0
x74 0
x75 0
x76 0
x77 1
x78 1
x79 1
x80 0
x81 1
x82 0
x83 0
x84 0
x85 1
x86 0
x87 0
x88 1
x89 1
x90 1
x91 0
x92 1
x93 0
x94 0
x95 1
x96 1
x97 1
x98 0
x99 1
x100 0
x101 1
x102 1
x103 0
x104 0
x105 0
x106 1
x107 0
x108 1
x109 0
x110 0
x111 0
x112 1
x113 1
x114 1
x115 0
x116 1
x117 0
x118 1
x119 1
x120 0
x121 0
x122 1
x123 1
x124 1
x125 0
x126 1
x127 0
x128 1
x129 1
x130 0
x131 1
x132 0
x133 1
x134 1
x135 1
x136 0
x137 1
x138 0
x139 1
x140 1
x141 0
x142 1
x143 1
x144 0
x145 1
x146 1
x147 1
x148 0
x149 1
x150 0
x151 1
x152 1
x153 0
x154 1
x155 1
x156 1
x157 0
x158 1
x159 1
x160 1
x161 0
x162 1
x163 0
x164 1
x165 1
x166 0
x167 1
x168 1
x169 1
x170 1
x171 1
x172 0
x173 0
x174 0
x175 1
x176 0
x177 1
x178 0
x179 0
x180 1
x181 0
x182 0
x183 0
x184 0
x185 0
x186 0
x187 1
x188 1
x189 1
x190 0
x191 1
x192 0
x193 1
x194 1
x195 0
x196 1
x197 1
x198 1
x199 1
x200 1
x201 0
x202 1
x203 0
x204 0
x205 0
x206 1
x207 1
x208 0
x209 0
x210 1
x211 1
x212 1
x213 0
x214 1
x215 1
x216 0
x217 0
x218 1
x219 1
x220 1
x221 0
x222 1
x223 0
x224 0
x225 1
x226 0
x227 1
x228 1
x229 1
x230 0
x231 1
x232 1
x233 0
x234 1
x235 1
x236 0
x237 1
x238 0
x239 1
x240 1
x241 0
x242 1
x243 0
x244 1
x245 1
x246 1
x247 0
x248 1
x249 0
x250 1
x251 1
x252 1
x253 1
x254 0
x255 1
x256 1
x257 1
x258 1
x259 1
x260 0
x261 1
x262 0
x263 0
x264 0
x265 1
x266 1
x267 0
x268 0
x269 0
x270 0
x271 0
x272 0
x273 1
x274 0
x275 1
x276 1
x277 1
x278 1
x279 0
x280 1
x281 1
x282 1
x283 1
x284 1
x285 0
x286 0
x287 1
x288 1
x289 0
x290 1
x291 1
x292 1
x293 0
x294 1
x295 1
x296 1
x297 1
x298 1
x299 0
x300 1
x301 0
x302 1
x303 0
x304 0
x305 1
x306 1
x307 1
x308 0
x309 1
x310 1
x311 1
x312 1
x313 1
x314 0
x315 1
x316 1
x317 0
x318 1
x319 1
x320 0
x321 1
x322 1
x323 1
x324 0
x325 1
x326 1
x327 1
x328 1
x329 1
x330 0
x331 1
x332 1
x333 1
x334 1
x335 1
x336 0
x337 1
x338 0
x339 0
x340 0
x341 1
x342 0
x343 0
x344 0
x345 0
x346 0
x347 1
x348 0
x349 0
x350 0
x351 0
x352 0
x353 1
x354 1
x355 1
x356 1
x357 0
x358 1
x359 0
x360 1
x361 1
x362 1
x363 1
x364 1
x365 0
x366 1
x367 1
x368 1
x369 1
x370 0
x371 1
x372 0
x373 1
x374 0
x375 0
x376 1
x377 0
x378 1
x379 0
x380 0
x381 0
x382 0
x383 0
x384 1
x385 0
x386 0
x387 0
x388 0
x389 1
x390 0
x391 0
x392 1
x393 1
x394 1
x395 1
x396 0
x397 1
x398 0
x399 1
x400 1
x401 1
x402 1
x403 1
x404 0
x405 1
x406 1
x407 1
x408 1
x409 0
x410 1
x411 0
x412 0
x413 0
x414 1
x415 1
x416 1
x417 0
x418 1
x419 0
x420 1
x421 1
x422 1
x423 1
x424 1
x425 0
x426 1
x427 1
x428 1
x429 1
x430 0
x431 1
x432 0
x433 1
x434 0
x435 1
x436 1
x437 1
x438 0
x439 1
x440 0
x441 1
x442 1
x443 1
x444 1
x445 1
x446 0
x447 0
x448 0
x449 1
x450 1
x451 1
x452 0
x453 0
x454 0
x455 0
x456 0
x457 0
x458 1
x459 1
x460 1
x461 0
x462 1
x463 0
x464 1
x465 1
x466 1
x467 0
x468 1
x469 0
x470 0
x471 1
x472 1
x473 1
x474 0
x475 1
x476 0
x477 1
x478 1
x479 1
x480 1
x481 1
x482 0
x483 1
x484 0
x485 1
x486 1
x487 0
x488 1
x489 1
x490 0
x491 1
x492 1
x493 0
x494 1
x495 1
x496 0
x497 1
x498 1
x499 0
x500 1
x501 1
x502 0
x503 1
x504 1
x505 1
x506 1
x507 1
x508 0
x509 1
x510 1
x511 0
x512 1
x513 1
x514 1
x515 0
x516 1
x517 1
x518 0
x519 1
x520 1
x521 1
x522 1
x523 1
x524 0
x525 1
x526 1
x527 0
x528 1
x529 1
x530 1
x531 1
x532 1
x533 1
x534 0
x535 1
x536 0
x537 0
x538 0
x539 0
x540 0
x541 1
x542 0
x543 0
x544 1
x545 0
x546 0
x547 0
x548 0
x549 0
x550 0
x551 0
x552 1
x553 1
x554 1
x555 1
x556 1
x557 1
x558 1
x559 0
x560 1
x561 1
x562 0
x563 1
x564 1
x565 1
x566 1
x567 1
x568 0
x569 0
x570 0
x571 1
x572 1
x573 1
x574 1
x575 1
x576 1
x577 1
x578 0
x579 0
x580 1
x581 0
x582 1
x583 1
x584 1
x585 1
x586 1
x587 0
x588 1
x589 1
x590 1
x591 0
x592 0
x593 0
x594 1
x595 0
x596 0
x597 0
x598 1
x599 0
x600 0
x601 1
x602 0
x603 0
x604 0
x605 0
x606 0
x607 1
x608 0
x609 0
x610 0
x611 0
x612 1
x613 1
x614 1
x615 1
x616 1
x617 1
x618 1
x619 0
x620 1
x621 1
x622 0
x623 1
x624 1
x625 1
x626 1
x627 1
x628 0
x629 1
x630 1
x631 0
x632 1
x633 1
x634 0
x635 0
x636 1
x637 0
x638 0
x639 0
x640 1
x641 0
x642 0
x643 0
x644 1
x645 0
x646 0
x647 0
x648 0
x649 0
x650 1
x651 0
x652 0
x653 1
x654 0
x655 0
x656 1
x657 1
x658 1
x659 0
x660 1
x661 1
x662 1
x663 0
x664 1
x665 1
x666 1
x667 0
x668 1
x669 1
x670 1
x671 1
x672 1
x673 0
x674 1
x675 1
x676 0
x677 1
x678 0
x679 0
x680 1
x681 1
x682 1
x683 0
x684 1
x685 1
x686 1
x687 0
x688 1
x689 1
x690 1
x691 0
x692 1
x693 1
x694 1
x695 1
x696 1
x697 0
x698 1
x699 1
x700 0
x701 1
x702 0
x703 1
x704 0
x705 1
x706 1
x707 1
x708 0
x709 1
x710 0
x711 1
x712 0
x713 1
x714 1
x715 1
x716 0
x717 1
x718 1
x719 1
x720 1
x721 1
x722 0
x723 1
x724 1
x725 0
x726 1
x727 0
x728 1
x729 1
x730 0
x731 1
x732 1
x733 1
x734 0
x735 1
x736 0
x737 1
x738 1
x739 1
x740 1
x741 1
x742 0
x743 1
x744 1
x745 1
x746 0
x747 0
x748 1
x749 1
x750 1
x751 0
x752 0
x753 0
x754 1
x755 1
x756 1
x757 1
x758 1
x759 0
x760 1
x761 1
x762 1
x763 1
x764 1
x765 1
x766 0
x767 0
x768 0
x769 1
x770 0
x771 1
x772 0
x773 0
x774 0
x775 1
x776 0
x777 1
x778 0
x779 0
x780 1
x781 0
x782 0
x783 0
x784 0
x785 1
x786 1
x787 1
x788 0
x789 1
x790 0
x791 1
x792 1
x793 1
x794 1
x795 1
x796 0
x797 1
x798 1
x799 1
x800 1
x801 1
x802 1
x803 0
x804 1
x805 0
x806 0
x807 1
x808 0
x809 0
x810 1
x811 0
x812 0
x813 1
x814 0
x815 0
x816 0
x817 0
x818 1
x819 0
x820 1
x821 0
x822 0
x823 1
x824 0
x825 0
x826 1
x827 1
x828 0
x829 1
x830 1
x831 1
x832 1
x833 1
x834 0
x835 1
x836 1
x837 1
x838 1
x839 0
x840 1
x841 1
x842 1
x843 1
x844 0
x845 1
x846 0
x847 0
x848 1
x849 1
x850 0
x851 1
x852 1
x853 1
x854 1
x855 1
x856 0
x857 1
x858 1
x859 1
x860 1
x861 0
x862 0
x863 1
x864 1
x865 1
x866 0
x867 1
x868 0
x869 1
x870 0
x871 0
x872 1
x873 0
x874 1
x875 1
x876 1
x877 1
x878 1
x879 0
x880 1
x881 1
x882 1
x883 1
x884 0
x885 1
x886 1
x887 1
x888 1
x889 0
x890 1
x891 0
x892 1
x893 1
x894 0
x895 0
x896 1
x897 1
x898 1
x899 1
x900 1
x901 1
x902 1
x903 0
x904 1
x905 1
x906 1
x907 1
x908 1
x909 0
x910 1
x911 1
x912 1
x913 0
x914 1
x915 0
x916 1
x917 1
x918 1
x919 1
x920 1
x921 0
x922 0
x923 0
x924 0
x925 0
x926 0
x927 0
x928 1
x929 1
x930 1
x931 0
x932 0
x933 0
x934 1
x935 0
x936 0
x937 0
x938 1
x939 0
x940 1
x941 0
x942 0
x943 0
x944 0
x945 0
x946 0
x947 1
x948 1
x949 1
x950 0
x951 1
x952 1
x953 1
x954 0
x955 1
x956 1
x957 1
x958 1
x959 1
x960 0
x961 1
x962 1
x963 1
x964 0
x965 1
x966 0
x967 1
x968 1
x969 1
x970 1
x971 0
x972 0
x973 0
x974 1
x975 1
x976 1
x977 1
x978 1
x979 1
x980 1
x981 0
x982 1
x983 1
x984 0
x985 1
x986 1
x987 0
x988 1
x989 1
x990 1
x991 0
x992 1
x993 0
x994 1
x995 1
x996 1
x997 1
x998 0
x999 1
x1000 0
x1001 0
x1002 1
x1003 1
x1004 0
x1005 1
x1006 1
x1007 1
x1008 0
x1009 1
x1010 1
x1011 1
x1012 1
x1013 0
x1014 1
x1015 1
x1016 1
x1017 1
x1018 1
x1019 0
x1020 1
x1021 0
x1022 1
x1023 1
x1024 1
x1025 1
x1026 0
x1027 1
x1028 1
x1029 0
x1030 1
x1031 1
x1032 1
x1033 0
x1034 1
x1035 1
x1036 1
x1037 0
x1038 1
x1039 1
x1040 0
x1041 1
x1042 0
x1043 1
x1044 1
x1045 1
x1046 1
x1047 1
x1048 0
x1049 1
x1050 0
x1051 1
x1052 1
x1053 1
x1054 1
x1055 0
x1056 1
x1057 1
x1058 1
x1059 0
x1060 1
x1061 1
x1062 1
x1063 0
x1064 1
x1065 1
x1066 1
x1067 0
x1068 1
x1069 1
x1070 1
x1071 1
x1072 0
x1073 1
x1074 1
x1075 1
x1076 1
x1077 1
x1078 0
x1079 1
x1080 0
x1081 1
x1082 1
x1083 1
x1084 1
x1085 0
x1086 1
x1087 1
x1088 1
x1089 1
x1090 1
x1091 0
x1092 0
x1093 0
x1094 1
x1095 0
x1096 1
x1097 0
x1098 1
x1099 0
x1100 0
x1101 0
x1102 1
x1103 1
x1104 0
x1105 0
x1106 0
x1107 0
x1108 0
x1109 1
x1110 0
x1111 1
x1112 0
x1113 0
x1114 0
x1115 0
x1116 1
x1117 0
x1118 0
x1119 0
x1120 0
x1121 0
x1 1
x2 0
x3 0
x4 0
x5 1
x6 0
x7 1
x8 0
x9 0
x10 1
x11 0
x12 0
x13 0
x14 0
x15 0
x16 1
x17 0
x18 1
x19 0
x20 0
x21 0
x22 0
x23 0
x24 1
x25 0
x26 0
x27 0
x28 0
x29 1
x30 0
x31 1
x32 0
x33 0
x34 0
x35 1
x36 0
x37 0
x38 0
x39 0
x40 0
x41 1
x42 0
x43 0
x44 1
x45 0
x46 1
x47 0
x48 0
x49 0
x50 0
x51 0
x52 1
x53 0
x54 1
x55 0
x56 0
x57 0
x58 0
x59 1
x60 0
x61 0
x62 0
x63 0
x64 0
x65 1
